NAME : MM30_depots
COMMENT : Instance 30 in MD algorithm. Coordinates of depots and vhcl speeds given.
TYPE : TSP
DIMENSION : 10
EDGE_WEIGHT_TYPE : ATT
NODE_COORD_SECTION
401 13.7563 63.9193 1
402 52.4102 68.2423 1
403 61.1506 55.3530 1
404 35.8528 50.2519 1
405 49.0485 30.5918 1
406 54.8631 58.2473 1
407 39.7564 29.7359 1
408 49.7726 76.5131 1
409 56.8686 58.7746 1
410 34.3808 54.4136 1
EOF
